
Gurobi 7.0.1 (linux64) logging started Sun Jul  2 21:46:27 2017

Optimize a model with 28874 rows, 14464 columns and 80225 nonzeros
Variable types: 0 continuous, 14464 integer (14464 binary)
Coefficient statistics:
  Matrix range     [1e+00, 9e+00]
  Objective range  [1e+00, 1e+00]
  Bounds range     [1e+00, 1e+00]
  RHS range        [1e+00, 5e+01]
Presolve removed 28741 rows and 14390 columns
Presolve time: 0.04s
Presolved: 133 rows, 74 columns, 817 nonzeros
Variable types: 0 continuous, 74 integer (74 binary)

Root relaxation: objective 2.000000e+01, 10 iterations, 0.00 seconds

    Nodes    |    Current Node    |     Objective Bounds      |     Work
 Expl Unexpl |  Obj  Depth IntInf | Incumbent    BestBd   Gap | It/Node Time

     0     0   20.00000    0    2          -   20.00000      -     -    0s
     0     0   20.00000    0    3          -   20.00000      -     -    0s
     0     0   20.00000    0    3          -   20.00000      -     -    0s
     0     0   20.00000    0    2          -   20.00000      -     -    0s
     0     0   20.00000    0    2          -   20.00000      -     -    0s
     0     2   20.00000    0    2          -   20.00000      -     -    0s
*    7     0               3      17.0000000   20.00000  17.6%   3.9    0s

Cutting planes:
  Gomory: 1
  Clique: 3
  MIR: 1
  Lazy constraints: 15

Explored 12 nodes (129 simplex iterations) in 0.26 seconds
Thread count was 12 (of 12 available processors)

Solution count 1: 17 
Pool objective bound 17

Optimal solution found (tolerance 1.00e-04)
Best objective 1.700000000000e+01, best bound 1.700000000000e+01, gap 0.0000%
Optimize a model with 28874 rows, 14464 columns and 80225 nonzeros
Variable types: 0 continuous, 14464 integer (14464 binary)
Coefficient statistics:
  Matrix range     [1e+00, 9e+00]
  Objective range  [2e-01, 8e-01]
  Bounds range     [1e+00, 1e+00]
  RHS range        [1e+00, 5e+01]
Presolve removed 28741 rows and 14390 columns
Presolve time: 0.03s
Presolved: 133 rows, 74 columns, 817 nonzeros

Loaded MIP start with objective 4.44089e-16

Variable types: 0 continuous, 74 integer (74 binary)

Root relaxation: objective 1.145455e+00, 24 iterations, 0.00 seconds

    Nodes    |    Current Node    |     Objective Bounds      |     Work
 Expl Unexpl |  Obj  Depth IntInf | Incumbent    BestBd   Gap | It/Node Time

     0     0    1.14545    0    6    0.00000    1.14545      -     -    0s
H    0     0                       0.5454545    1.14545   110%     -    0s
     0     0    0.94545    0    5    0.54545    0.94545  73.3%     -    0s
H    0     0                       0.7727273    0.94545  22.4%     -    0s
     0     0    0.86364    0   11    0.77273    0.86364  11.8%     -    0s

Cutting planes:
  Gomory: 1
  Clique: 2

Explored 0 nodes (37 simplex iterations) in 0.13 seconds
Thread count was 12 (of 12 available processors)

Solution count 3: 0.772727 0.545455 4.44089e-16 
Pool objective bound 0.772727

Optimal solution found (tolerance 1.00e-04)
Best objective 7.727272727273e-01, best bound 7.727272727273e-01, gap 0.0000%
Optimize a model with 28874 rows, 14464 columns and 80225 nonzeros
Variable types: 0 continuous, 14464 integer (14464 binary)
Coefficient statistics:
  Matrix range     [1e+00, 9e+00]
  Objective range  [2e-01, 8e-01]
  Bounds range     [1e+00, 1e+00]
  RHS range        [1e+00, 5e+01]
Presolve removed 28741 rows and 14390 columns
Presolve time: 0.03s
Presolved: 133 rows, 74 columns, 817 nonzeros

Loaded MIP start with objective -2.22045e-16

Variable types: 0 continuous, 74 integer (74 binary)

Root relaxation: objective 4.095238e-01, 23 iterations, 0.00 seconds

    Nodes    |    Current Node    |     Objective Bounds      |     Work
 Expl Unexpl |  Obj  Depth IntInf | Incumbent    BestBd   Gap | It/Node Time

     0     0    0.40952    0    6   -0.00000    0.40952      -     -    0s
     0     0    0.20952    0    5   -0.00000    0.20952      -     -    0s
     0     0    0.20952    0    6   -0.00000    0.20952      -     -    0s
     0     0    0.20952    0    5   -0.00000    0.20952      -     -    0s
     0     0    0.00952    0    5   -0.00000    0.00952      -     -    0s

Cutting planes:
  Gomory: 2
  Clique: 2
  GUB cover: 1
  Zero half: 1

Explored 0 nodes (61 simplex iterations) in 0.11 seconds
Thread count was 12 (of 12 available processors)

Solution count 1: -2.22045e-16 
Pool objective bound -2.22045e-16

Optimal solution found (tolerance 1.00e-04)
Best objective -2.220446049250e-16, best bound -2.220446049250e-16, gap -
